<?xml version="1.0" encoding="UTF-8"?><osil xmlns="os.optimizationservices.org"   xmlns:xsi="http://www.w3.org/2001/XMLSchema-instance" xsi:schemaLocation="os.optimizationservices.org http://www.optimizationservices.org/schemas/2.0/OSiL.xsd" ><instanceHeader><name>q_20_4_50_1</name></instanceHeader><instanceData><variables numberOfVariables="20"><var name="x1" ub="1"/><var name="x2" ub="1"/><var name="x3" ub="1"/><var name="x4" ub="1"/><var name="x5" ub="1"/><var name="x6" ub="1"/><var name="x7" ub="1"/><var name="x8" ub="1"/><var name="x9" ub="1"/><var name="x10" ub="1"/><var name="x11" ub="1"/><var name="x12" ub="1"/><var name="x13" ub="1"/><var name="x14" ub="1"/><var name="x15" ub="1"/><var name="x16" ub="1"/><var name="x17" ub="1"/><var name="x18" ub="1"/><var name="x19" ub="1"/><var name="x20" ub="1"/></variables><objectives numberOfObjectives="1"><obj maxOrMin="min" name="defObj_x21" numberOfObjCoef="20"><coef idx="0">6.64e-2</coef><coef idx="1">-.3905</coef><coef idx="2">-.396</coef><coef idx="3">.2489</coef><coef idx="4">-.3591</coef><coef idx="5">.8875</coef><coef idx="6">-.1074</coef><coef idx="7">.3386</coef><coef idx="8">.1374</coef><coef idx="9">2.61e-2</coef><coef idx="10">-.6731</coef><coef idx="11">.2712</coef><coef idx="12">.8375</coef><coef idx="13">.7226</coef><coef idx="14">-.6796</coef><coef idx="15">5.95e-2</coef><coef idx="16">-.26</coef><coef idx="17">-.3089</coef><coef idx="18">.9926</coef><coef idx="19">-.2871</coef></obj></objectives><constraints numberOfConstraints="4"><con name="e2" ub="34.349"/><con name="e3" ub="70.853"/><con name="e4" ub="61.466"/><con name="e5" ub="3.09"/></constraints><linearConstraintCoefficients numberOfValues="80"><start><el mult="5" incr="20">0</el></start><colIdx><el mult="20" incr="1">0</el><el mult="20" incr="1">0</el><el mult="20" incr="1">0</el><el mult="20" incr="1">0</el></colIdx><value><el>5.26e-2</el><el>.9086</el><el>.5866</el><el>-.8777</el><el>1.81e-2</el><el>.2463</el><el>.1697</el><el>-.9148</el><el>.4976</el><el>-.7257</el><el>-.5447</el><el>-.3333</el><el>.7602</el><el>-.6432</el><el>.4335</el><el>.6657</el><el>-.3522</el><el>-.3207</el><el>-.9375</el><el>-.2883</el><el>.4034</el><el>.5915</el><el>-.9321</el><el>-.7018</el><el>.9676</el><el>7.7e-3</el><el>.6789</el><el>-.9712</el><el>-.1112</el><el>-.7022</el><el>.2821</el><el>-.4521</el><el>.3044</el><el>.8173</el><el>-.6102</el><el>.4353</el><el>.8494</el><el>-1.41e-2</el><el>-.2351</el><el>-.5149</el><el>-.7161</el><el>.9478</el><el>-.5196</el><el>4.2e-3</el><el>6.51e-2</el><el>.4006</el><el>-.9599</el><el>.3718</el><el>.1411</el><el>.2001</el><el>.8509</el><el>-.4025</el><el>.7677</el><el>.4991</el><el>-.4967</el><el>.1541</el><el>.7379</el><el>-.3782</el><el>.5223</el><el>.9067</el><el>-.8179</el><el>.5916</el><el>-.174</el><el>-.7632</el><el>.4464</el><el>.3816</el><el>.8258</el><el>.6814</el><el>.5022</el><el>.3228</el><el>.1633</el><el>.9017</el><el>.3344</el><el>7.07e-2</el><el>.6542</el><el>-5.03e-2</el><el>.4622</el><el>6.59e-2</el><el>.1075</el><el>.6404</el></value></linearConstraintCoefficients><quadraticCoefficients  numberOfQuadraticTerms="525" ><qTerm  idx="-1"  idxOne="0"  idxTwo="3"  coef="1.2974"/><qTerm  idx="-1"  idxOne="0"  idxTwo="7"  coef=".8412"/><qTerm  idx="-1"  idxOne="0"  idxTwo="12"  coef="-1.7447"/><qTerm  idx="-1"  idxOne="0"  idxTwo="13"  coef="-.2707"/><qTerm  idx="-1"  idxOne="0"  idxTwo="15"  coef="-1.6479"/><qTerm  idx="-1"  idxOne="0"  idxTwo="17"  coef="1.1896"/><qTerm  idx="-1"  idxOne="1"  idxTwo="2"  coef="1.7041"/><qTerm  idx="-1"  idxOne="1"  idxTwo="3"  coef="-.7921"/><qTerm  idx="-1"  idxOne="1"  idxTwo="5"  coef=".6372"/><qTerm  idx="-1"  idxOne="1"  idxTwo="9"  coef="-.7234"/><qTerm  idx="-1"  idxOne="1"  idxTwo="10"  coef="-1.6654"/><qTerm  idx="-1"  idxOne="1"  idxTwo="11"  coef="1.8798"/><qTerm  idx="-1"  idxOne="1"  idxTwo="13"  coef="-1.9979"/><qTerm  idx="-1"  idxOne="1"  idxTwo="14"  coef="1.8404"/><qTerm  idx="-1"  idxOne="1"  idxTwo="16"  coef="-1.256"/><qTerm  idx="-1"  idxOne="1"  idxTwo="18"  coef="-.8171"/><qTerm  idx="-1"  idxOne="1"  idxTwo="19"  coef="-.4388"/><qTerm  idx="-1"  idxOne="2"  idxTwo="5"  coef="-1.203"/><qTerm  idx="-1"  idxOne="2"  idxTwo="7"  coef="1.9819"/><qTerm  idx="-1"  idxOne="2"  idxTwo="9"  coef="1.6824"/><qTerm  idx="-1"  idxOne="2"  idxTwo="10"  coef=".5404"/><qTerm  idx="-1"  idxOne="2"  idxTwo="14"  coef="-1.4348"/><qTerm  idx="-1"  idxOne="2"  idxTwo="15"  coef="-7.04e-2"/><qTerm  idx="-1"  idxOne="2"  idxTwo="16"  coef="1.6927"/><qTerm  idx="-1"  idxOne="2"  idxTwo="18"  coef="1.8592"/><qTerm  idx="-1"  idxOne="2"  idxTwo="19"  coef=".7085"/><qTerm  idx="-1"  idxOne="3"  idxTwo="3"  coef="-6.12e-2"/><qTerm  idx="-1"  idxOne="3"  idxTwo="4"  coef="-1.9263"/><qTerm  idx="-1"  idxOne="3"  idxTwo="7"  coef=".1314"/><qTerm  idx="-1"  idxOne="3"  idxTwo="13"  coef="-1.3876"/><qTerm  idx="-1"  idxOne="3"  idxTwo="14"  coef=".8094"/><qTerm  idx="-1"  idxOne="3"  idxTwo="15"  coef="5.54e-2"/><qTerm  idx="-1"  idxOne="3"  idxTwo="17"  coef=".1787"/><qTerm  idx="-1"  idxOne="3"  idxTwo="18"  coef="-.2923"/><qTerm  idx="-1"  idxOne="4"  idxTwo="8"  coef="1.5934"/><qTerm  idx="-1"  idxOne="4"  idxTwo="10"  coef="1.0649"/><qTerm  idx="-1"  idxOne="4"  idxTwo="12"  coef="1.8848"/><qTerm  idx="-1"  idxOne="4"  idxTwo="15"  coef="-.52"/><qTerm  idx="-1"  idxOne="4"  idxTwo="16"  coef="-.3226"/><qTerm  idx="-1"  idxOne="4"  idxTwo="17"  coef="1.0081"/><qTerm  idx="-1"  idxOne="5"  idxTwo="5"  coef=".5166"/><qTerm  idx="-1"  idxOne="5"  idxTwo="6"  coef="1.1081"/><qTerm  idx="-1"  idxOne="5"  idxTwo="7"  coef="-.3256"/><qTerm  idx="-1"  idxOne="5"  idxTwo="8"  coef="-6.73e-2"/><qTerm  idx="-1"  idxOne="5"  idxTwo="12"  coef="-.2408"/><qTerm  idx="-1"  idxOne="5"  idxTwo="13"  coef=".8151"/><qTerm  idx="-1"  idxOne="5"  idxTwo="15"  coef="1.578"/><qTerm  idx="-1"  idxOne="6"  idxTwo="6"  coef=".2999"/><qTerm  idx="-1"  idxOne="6"  idxTwo="7"  coef="1.3137"/><qTerm  idx="-1"  idxOne="6"  idxTwo="8"  coef="-1.3585"/><qTerm  idx="-1"  idxOne="6"  idxTwo="9"  coef=".7186"/><qTerm  idx="-1"  idxOne="6"  idxTwo="15"  coef="-1.3574"/><qTerm  idx="-1"  idxOne="6"  idxTwo="16"  coef="-.7826"/><qTerm  idx="-1"  idxOne="6"  idxTwo="17"  coef="1.0304"/><qTerm  idx="-1"  idxOne="6"  idxTwo="18"  coef="-1.7897"/><qTerm  idx="-1"  idxOne="7"  idxTwo="8"  coef=".1034"/><qTerm  idx="-1"  idxOne="7"  idxTwo="10"  coef="-1.8209"/><qTerm  idx="-1"  idxOne="7"  idxTwo="11"  coef="-1.8339"/><qTerm  idx="-1"  idxOne="7"  idxTwo="12"  coef="-.4621"/><qTerm  idx="-1"  idxOne="7"  idxTwo="13"  coef="1.6276"/><qTerm  idx="-1"  idxOne="7"  idxTwo="14"  coef="1.366"/><qTerm  idx="-1"  idxOne="7"  idxTwo="15"  coef="7.85e-2"/><qTerm  idx="-1"  idxOne="7"  idxTwo="16"  coef="-.7443"/><qTerm  idx="-1"  idxOne="8"  idxTwo="9"  coef="-.8708"/><qTerm  idx="-1"  idxOne="8"  idxTwo="10"  coef="5.8e-2"/><qTerm  idx="-1"  idxOne="8"  idxTwo="12"  coef="-1.8471"/><qTerm  idx="-1"  idxOne="8"  idxTwo="14"  coef="1.9335"/><qTerm  idx="-1"  idxOne="8"  idxTwo="16"  coef="1.1911"/><qTerm  idx="-1"  idxOne="8"  idxTwo="17"  coef="-.3869"/><qTerm  idx="-1"  idxOne="8"  idxTwo="18"  coef="1.5044"/><qTerm  idx="-1"  idxOne="9"  idxTwo="9"  coef=".4433"/><qTerm  idx="-1"  idxOne="9"  idxTwo="10"  coef="1.8586"/><qTerm  idx="-1"  idxOne="9"  idxTwo="11"  coef="-.4502"/><qTerm  idx="-1"  idxOne="9"  idxTwo="13"  coef="-.3274"/><qTerm  idx="-1"  idxOne="9"  idxTwo="14"  coef="-1.1684"/><qTerm  idx="-1"  idxOne="9"  idxTwo="15"  coef="-1.2273"/><qTerm  idx="-1"  idxOne="10"  idxTwo="10"  coef="-1.2102"/><qTerm  idx="-1"  idxOne="10"  idxTwo="11"  coef="-.6619"/><qTerm  idx="-1"  idxOne="10"  idxTwo="12"  coef="-1.66e-2"/><qTerm  idx="-1"  idxOne="10"  idxTwo="13"  coef="-.352"/><qTerm  idx="-1"  idxOne="10"  idxTwo="15"  coef="-.9607"/><qTerm  idx="-1"  idxOne="10"  idxTwo="16"  coef="-.5238"/><qTerm  idx="-1"  idxOne="10"  idxTwo="18"  coef="-.7882"/><qTerm  idx="-1"  idxOne="10"  idxTwo="19"  coef="-5.02e-2"/><qTerm  idx="-1"  idxOne="11"  idxTwo="13"  coef=".6525"/><qTerm  idx="-1"  idxOne="11"  idxTwo="15"  coef="-1.8207"/><qTerm  idx="-1"  idxOne="11"  idxTwo="17"  coef="-1.884"/><qTerm  idx="-1"  idxOne="11"  idxTwo="18"  coef=".3548"/><qTerm  idx="-1"  idxOne="12"  idxTwo="12"  coef="-1.1315"/><qTerm  idx="-1"  idxOne="12"  idxTwo="13"  coef="1.0482"/><qTerm  idx="-1"  idxOne="12"  idxTwo="14"  coef=".8244"/><qTerm  idx="-1"  idxOne="12"  idxTwo="18"  coef=".148"/><qTerm  idx="-1"  idxOne="13"  idxTwo="14"  coef="1.9259"/><qTerm  idx="-1"  idxOne="13"  idxTwo="16"  coef="-1.4437"/><qTerm  idx="-1"  idxOne="13"  idxTwo="17"  coef="1.5015"/><qTerm  idx="-1"  idxOne="13"  idxTwo="18"  coef="-.699"/><qTerm  idx="-1"  idxOne="13"  idxTwo="19"  coef="-1.3804"/><qTerm  idx="-1"  idxOne="14"  idxTwo="15"  coef="1.8095"/><qTerm  idx="-1"  idxOne="14"  idxTwo="16"  coef=".1389"/><qTerm  idx="-1"  idxOne="14"  idxTwo="19"  coef="1.9871"/><qTerm  idx="-1"  idxOne="15"  idxTwo="15"  coef="1.4572"/><qTerm  idx="-1"  idxOne="15"  idxTwo="17"  coef="1.7937"/><qTerm  idx="-1"  idxOne="16"  idxTwo="17"  coef="-.834"/><qTerm  idx="-1"  idxOne="17"  idxTwo="18"  coef="-2.75e-2"/><qTerm  idx="-1"  idxOne="19"  idxTwo="19"  coef="-1.7937"/><qTerm  idx="0"  idxOne="0"  idxTwo="1"  coef=".8115"/><qTerm  idx="0"  idxOne="0"  idxTwo="4"  coef="-1.9687"/><qTerm  idx="0"  idxOne="0"  idxTwo="7"  coef="-.395"/><qTerm  idx="0"  idxOne="0"  idxTwo="9"  coef="-1.2317"/><qTerm  idx="0"  idxOne="0"  idxTwo="11"  coef=".7424"/><qTerm  idx="0"  idxOne="0"  idxTwo="12"  coef="1.3914"/><qTerm  idx="0"  idxOne="0"  idxTwo="14"  coef="1.4037"/><qTerm  idx="0"  idxOne="0"  idxTwo="18"  coef="-1.906"/><qTerm  idx="0"  idxOne="1"  idxTwo="1"  coef="-1.4414"/><qTerm  idx="0"  idxOne="1"  idxTwo="3"  coef="-.239"/><qTerm  idx="0"  idxOne="1"  idxTwo="4"  coef=".9385"/><qTerm  idx="0"  idxOne="1"  idxTwo="5"  coef=".1288"/><qTerm  idx="0"  idxOne="1"  idxTwo="6"  coef=".5351"/><qTerm  idx="0"  idxOne="1"  idxTwo="7"  coef="1.7367"/><qTerm  idx="0"  idxOne="1"  idxTwo="8"  coef=".9659"/><qTerm  idx="0"  idxOne="1"  idxTwo="9"  coef="1.3722"/><qTerm  idx="0"  idxOne="1"  idxTwo="11"  coef=".9185"/><qTerm  idx="0"  idxOne="1"  idxTwo="12"  coef="1.3923"/><qTerm  idx="0"  idxOne="1"  idxTwo="14"  coef="1.9937"/><qTerm  idx="0"  idxOne="1"  idxTwo="15"  coef="1.9593"/><qTerm  idx="0"  idxOne="1"  idxTwo="16"  coef="1.4479"/><qTerm  idx="0"  idxOne="2"  idxTwo="2"  coef="1.9198"/><qTerm  idx="0"  idxOne="2"  idxTwo="4"  coef="1.7599"/><qTerm  idx="0"  idxOne="2"  idxTwo="5"  coef="1.7787"/><qTerm  idx="0"  idxOne="2"  idxTwo="6"  coef="1.9283"/><qTerm  idx="0"  idxOne="2"  idxTwo="7"  coef="-.4423"/><qTerm  idx="0"  idxOne="2"  idxTwo="9"  coef="-.8342"/><qTerm  idx="0"  idxOne="2"  idxTwo="11"  coef="-9.69e-2"/><qTerm  idx="0"  idxOne="2"  idxTwo="13"  coef="-.8159"/><qTerm  idx="0"  idxOne="2"  idxTwo="14"  coef="-1.0036"/><qTerm  idx="0"  idxOne="2"  idxTwo="15"  coef=".5732"/><qTerm  idx="0"  idxOne="2"  idxTwo="16"  coef="-.6852"/><qTerm  idx="0"  idxOne="2"  idxTwo="18"  coef="-.2756"/><qTerm  idx="0"  idxOne="3"  idxTwo="4"  coef="-1.0097"/><qTerm  idx="0"  idxOne="3"  idxTwo="5"  coef="1.2676"/><qTerm  idx="0"  idxOne="3"  idxTwo="6"  coef="1.6289"/><qTerm  idx="0"  idxOne="3"  idxTwo="9"  coef="-.7494"/><qTerm  idx="0"  idxOne="3"  idxTwo="10"  coef="1.0638"/><qTerm  idx="0"  idxOne="3"  idxTwo="12"  coef="-1.9985"/><qTerm  idx="0"  idxOne="3"  idxTwo="13"  coef="1.0978"/><qTerm  idx="0"  idxOne="3"  idxTwo="16"  coef=".3999"/><qTerm  idx="0"  idxOne="3"  idxTwo="17"  coef="-1.9579"/><qTerm  idx="0"  idxOne="4"  idxTwo="4"  coef="1.1228"/><qTerm  idx="0"  idxOne="4"  idxTwo="7"  coef="-.3058"/><qTerm  idx="0"  idxOne="4"  idxTwo="8"  coef="-1.2214"/><qTerm  idx="0"  idxOne="4"  idxTwo="9"  coef="-4.1e-3"/><qTerm  idx="0"  idxOne="4"  idxTwo="11"  coef=".8494"/><qTerm  idx="0"  idxOne="4"  idxTwo="13"  coef=".9313"/><qTerm  idx="0"  idxOne="4"  idxTwo="14"  coef=".3702"/><qTerm  idx="0"  idxOne="4"  idxTwo="17"  coef="-1.4516"/><qTerm  idx="0"  idxOne="5"  idxTwo="7"  coef="-.7645"/><qTerm  idx="0"  idxOne="5"  idxTwo="8"  coef="1.1382"/><qTerm  idx="0"  idxOne="5"  idxTwo="10"  coef=".2196"/><qTerm  idx="0"  idxOne="5"  idxTwo="11"  coef="-1.1088"/><qTerm  idx="0"  idxOne="5"  idxTwo="12"  coef="-1.7212"/><qTerm  idx="0"  idxOne="5"  idxTwo="13"  coef="-.6033"/><qTerm  idx="0"  idxOne="5"  idxTwo="14"  coef="1.0298"/><qTerm  idx="0"  idxOne="5"  idxTwo="15"  coef="-1.4515"/><qTerm  idx="0"  idxOne="5"  idxTwo="16"  coef="1.0862"/><qTerm  idx="0"  idxOne="5"  idxTwo="19"  coef="-1.6471"/><qTerm  idx="0"  idxOne="6"  idxTwo="8"  coef="-.6727"/><qTerm  idx="0"  idxOne="6"  idxTwo="18"  coef="-.2881"/><qTerm  idx="0"  idxOne="7"  idxTwo="7"  coef="-9.4e-3"/><qTerm  idx="0"  idxOne="7"  idxTwo="8"  coef="-1.3662"/><qTerm  idx="0"  idxOne="7"  idxTwo="9"  coef="1.9501"/><qTerm  idx="0"  idxOne="7"  idxTwo="11"  coef="-.3761"/><qTerm  idx="0"  idxOne="7"  idxTwo="12"  coef="-.6892"/><qTerm  idx="0"  idxOne="7"  idxTwo="13"  coef=".5784"/><qTerm  idx="0"  idxOne="7"  idxTwo="14"  coef=".8543"/><qTerm  idx="0"  idxOne="7"  idxTwo="15"  coef="-.8744"/><qTerm  idx="0"  idxOne="8"  idxTwo="8"  coef=".5444"/><qTerm  idx="0"  idxOne="8"  idxTwo="9"  coef="-1.7428"/><qTerm  idx="0"  idxOne="8"  idxTwo="10"  coef="1.1939"/><qTerm  idx="0"  idxOne="8"  idxTwo="11"  coef="-.3721"/><qTerm  idx="0"  idxOne="8"  idxTwo="13"  coef="-1.1306"/><qTerm  idx="0"  idxOne="8"  idxTwo="15"  coef="-1.6364"/><qTerm  idx="0"  idxOne="8"  idxTwo="16"  coef=".4517"/><qTerm  idx="0"  idxOne="8"  idxTwo="18"  coef="-1.5825"/><qTerm  idx="0"  idxOne="9"  idxTwo="12"  coef=".8756"/><qTerm  idx="0"  idxOne="9"  idxTwo="13"  coef=".7652"/><qTerm  idx="0"  idxOne="9"  idxTwo="14"  coef="-.1809"/><qTerm  idx="0"  idxOne="10"  idxTwo="11"  coef="-.9248"/><qTerm  idx="0"  idxOne="10"  idxTwo="13"  coef="-1.5668"/><qTerm  idx="0"  idxOne="10"  idxTwo="15"  coef="1.6062"/><qTerm  idx="0"  idxOne="10"  idxTwo="17"  coef="-.6609"/><qTerm  idx="0"  idxOne="11"  idxTwo="11"  coef=".5275"/><qTerm  idx="0"  idxOne="11"  idxTwo="15"  coef="-1.1721"/><qTerm  idx="0"  idxOne="11"  idxTwo="16"  coef=".2939"/><qTerm  idx="0"  idxOne="11"  idxTwo="17"  coef="-1.1569"/><qTerm  idx="0"  idxOne="12"  idxTwo="12"  coef="-.1393"/><qTerm  idx="0"  idxOne="12"  idxTwo="13"  coef="-1.895"/><qTerm  idx="0"  idxOne="12"  idxTwo="14"  coef="1.1181"/><qTerm  idx="0"  idxOne="12"  idxTwo="15"  coef="-.126"/><qTerm  idx="0"  idxOne="13"  idxTwo="14"  coef="1.5699"/><qTerm  idx="0"  idxOne="13"  idxTwo="15"  coef="1.1571"/><qTerm  idx="0"  idxOne="13"  idxTwo="16"  coef=".2759"/><qTerm  idx="0"  idxOne="13"  idxTwo="18"  coef="1.4429"/><qTerm  idx="0"  idxOne="14"  idxTwo="15"  coef="1.6439"/><qTerm  idx="0"  idxOne="14"  idxTwo="16"  coef="-1.3907"/><qTerm  idx="0"  idxOne="14"  idxTwo="18"  coef=".2523"/><qTerm  idx="0"  idxOne="15"  idxTwo="16"  coef="-.138"/><qTerm  idx="0"  idxOne="16"  idxTwo="17"  coef="-.414"/><qTerm  idx="0"  idxOne="16"  idxTwo="18"  coef="-.1297"/><qTerm  idx="0"  idxOne="18"  idxTwo="18"  coef="-1.954"/><qTerm  idx="0"  idxOne="18"  idxTwo="19"  coef="1.6646"/><qTerm  idx="1"  idxOne="0"  idxTwo="4"  coef=".8619"/><qTerm  idx="1"  idxOne="0"  idxTwo="5"  coef="1.7423"/><qTerm  idx="1"  idxOne="0"  idxTwo="7"  coef="1.5963"/><qTerm  idx="1"  idxOne="0"  idxTwo="11"  coef="1.7271"/><qTerm  idx="1"  idxOne="0"  idxTwo="13"  coef="-1.8084"/><qTerm  idx="1"  idxOne="0"  idxTwo="17"  coef=".7473"/><qTerm  idx="1"  idxOne="1"  idxTwo="2"  coef="1.297"/><qTerm  idx="1"  idxOne="1"  idxTwo="5"  coef="1.3167"/><qTerm  idx="1"  idxOne="1"  idxTwo="8"  coef="-1.145"/><qTerm  idx="1"  idxOne="1"  idxTwo="9"  coef="-1.2958"/><qTerm  idx="1"  idxOne="1"  idxTwo="10"  coef="1.0554"/><qTerm  idx="1"  idxOne="1"  idxTwo="12"  coef="-1.9396"/><qTerm  idx="1"  idxOne="1"  idxTwo="15"  coef="-1.7959"/><qTerm  idx="1"  idxOne="1"  idxTwo="18"  coef="1.4481"/><qTerm  idx="1"  idxOne="2"  idxTwo="2"  coef=".1305"/><qTerm  idx="1"  idxOne="2"  idxTwo="3"  coef=".9873"/><qTerm  idx="1"  idxOne="2"  idxTwo="5"  coef="1.6855"/><qTerm  idx="1"  idxOne="2"  idxTwo="6"  coef="-1.2799"/><qTerm  idx="1"  idxOne="2"  idxTwo="8"  coef="-1.9245"/><qTerm  idx="1"  idxOne="2"  idxTwo="9"  coef="1.7602"/><qTerm  idx="1"  idxOne="2"  idxTwo="10"  coef="1.9899"/><qTerm  idx="1"  idxOne="2"  idxTwo="12"  coef="1.1407"/><qTerm  idx="1"  idxOne="2"  idxTwo="13"  coef=".2442"/><qTerm  idx="1"  idxOne="2"  idxTwo="14"  coef="1.4851"/><qTerm  idx="1"  idxOne="2"  idxTwo="15"  coef="-.4728"/><qTerm  idx="1"  idxOne="2"  idxTwo="19"  coef="1.2578"/><qTerm  idx="1"  idxOne="3"  idxTwo="5"  coef="-1.0236"/><qTerm  idx="1"  idxOne="3"  idxTwo="6"  coef="-.4212"/><qTerm  idx="1"  idxOne="3"  idxTwo="8"  coef="-.5689"/><qTerm  idx="1"  idxOne="3"  idxTwo="11"  coef="1.6347"/><qTerm  idx="1"  idxOne="3"  idxTwo="15"  coef="-.3652"/><qTerm  idx="1"  idxOne="3"  idxTwo="16"  coef=".2957"/><qTerm  idx="1"  idxOne="3"  idxTwo="17"  coef="-1.2521"/><qTerm  idx="1"  idxOne="3"  idxTwo="18"  coef="-1.6699"/><qTerm  idx="1"  idxOne="4"  idxTwo="4"  coef="1.1747"/><qTerm  idx="1"  idxOne="4"  idxTwo="5"  coef=".5459"/><qTerm  idx="1"  idxOne="4"  idxTwo="6"  coef="-1.0942"/><qTerm  idx="1"  idxOne="4"  idxTwo="7"  coef="1.9276"/><qTerm  idx="1"  idxOne="4"  idxTwo="8"  coef="-.916"/><qTerm  idx="1"  idxOne="4"  idxTwo="10"  coef="-.1062"/><qTerm  idx="1"  idxOne="4"  idxTwo="11"  coef=".7022"/><qTerm  idx="1"  idxOne="4"  idxTwo="14"  coef="-.9558"/><qTerm  idx="1"  idxOne="4"  idxTwo="15"  coef="-.1506"/><qTerm  idx="1"  idxOne="4"  idxTwo="17"  coef="1.6003"/><qTerm  idx="1"  idxOne="5"  idxTwo="6"  coef="-.3108"/><qTerm  idx="1"  idxOne="5"  idxTwo="7"  coef="1.6772"/><qTerm  idx="1"  idxOne="5"  idxTwo="8"  coef="1.9893"/><qTerm  idx="1"  idxOne="5"  idxTwo="9"  coef="1.8105"/><qTerm  idx="1"  idxOne="5"  idxTwo="10"  coef="-.4977"/><qTerm  idx="1"  idxOne="5"  idxTwo="12"  coef="-.4867"/><qTerm  idx="1"  idxOne="5"  idxTwo="14"  coef="1.3971"/><qTerm  idx="1"  idxOne="5"  idxTwo="16"  coef="-.7825"/><qTerm  idx="1"  idxOne="6"  idxTwo="6"  coef=".8914"/><qTerm  idx="1"  idxOne="6"  idxTwo="10"  coef="1.1463"/><qTerm  idx="1"  idxOne="6"  idxTwo="11"  coef="-1.7368"/><qTerm  idx="1"  idxOne="6"  idxTwo="13"  coef="1.9382"/><qTerm  idx="1"  idxOne="6"  idxTwo="14"  coef="-1.3378"/><qTerm  idx="1"  idxOne="6"  idxTwo="15"  coef=".4051"/><qTerm  idx="1"  idxOne="6"  idxTwo="16"  coef=".4331"/><qTerm  idx="1"  idxOne="7"  idxTwo="7"  coef="1.3803"/><qTerm  idx="1"  idxOne="7"  idxTwo="8"  coef="1.078"/><qTerm  idx="1"  idxOne="7"  idxTwo="9"  coef="1.6178"/><qTerm  idx="1"  idxOne="7"  idxTwo="11"  coef="1.7914"/><qTerm  idx="1"  idxOne="7"  idxTwo="12"  coef="-1.8785"/><qTerm  idx="1"  idxOne="7"  idxTwo="15"  coef=".4766"/><qTerm  idx="1"  idxOne="7"  idxTwo="17"  coef="1.4094"/><qTerm  idx="1"  idxOne="7"  idxTwo="18"  coef="-.9717"/><qTerm  idx="1"  idxOne="8"  idxTwo="8"  coef="-.7491"/><qTerm  idx="1"  idxOne="8"  idxTwo="9"  coef="1.3375"/><qTerm  idx="1"  idxOne="8"  idxTwo="10"  coef="-.206"/><qTerm  idx="1"  idxOne="8"  idxTwo="14"  coef="1.7478"/><qTerm  idx="1"  idxOne="8"  idxTwo="15"  coef="1.147"/><qTerm  idx="1"  idxOne="8"  idxTwo="16"  coef=".1718"/><qTerm  idx="1"  idxOne="8"  idxTwo="17"  coef="-1.3958"/><qTerm  idx="1"  idxOne="8"  idxTwo="19"  coef=".201"/><qTerm  idx="1"  idxOne="9"  idxTwo="9"  coef="-.3924"/><qTerm  idx="1"  idxOne="9"  idxTwo="13"  coef="-.132"/><qTerm  idx="1"  idxOne="9"  idxTwo="14"  coef="-1.9625"/><qTerm  idx="1"  idxOne="9"  idxTwo="15"  coef="1.6256"/><qTerm  idx="1"  idxOne="9"  idxTwo="18"  coef="-1.7469"/><qTerm  idx="1"  idxOne="10"  idxTwo="12"  coef=".4392"/><qTerm  idx="1"  idxOne="10"  idxTwo="13"  coef="1.6416"/><qTerm  idx="1"  idxOne="10"  idxTwo="15"  coef="-1.6997"/><qTerm  idx="1"  idxOne="10"  idxTwo="16"  coef=".789"/><qTerm  idx="1"  idxOne="11"  idxTwo="13"  coef="-1.0523"/><qTerm  idx="1"  idxOne="11"  idxTwo="14"  coef="1.2736"/><qTerm  idx="1"  idxOne="11"  idxTwo="17"  coef="-3.49e-2"/><qTerm  idx="1"  idxOne="11"  idxTwo="18"  coef="-.5413"/><qTerm  idx="1"  idxOne="12"  idxTwo="14"  coef="-.1395"/><qTerm  idx="1"  idxOne="12"  idxTwo="18"  coef=".8635"/><qTerm  idx="1"  idxOne="13"  idxTwo="15"  coef="2.23e-2"/><qTerm  idx="1"  idxOne="13"  idxTwo="17"  coef="-1.3244"/><qTerm  idx="1"  idxOne="13"  idxTwo="18"  coef="1.9184"/><qTerm  idx="1"  idxOne="14"  idxTwo="15"  coef="-1.18"/><qTerm  idx="1"  idxOne="14"  idxTwo="16"  coef="1.8284"/><qTerm  idx="1"  idxOne="14"  idxTwo="17"  coef="-1.73e-2"/><qTerm  idx="1"  idxOne="15"  idxTwo="16"  coef="-.3181"/><qTerm  idx="1"  idxOne="15"  idxTwo="17"  coef="-3.98e-2"/><qTerm  idx="1"  idxOne="15"  idxTwo="18"  coef="-1.0156"/><qTerm  idx="1"  idxOne="16"  idxTwo="18"  coef=".8367"/><qTerm  idx="1"  idxOne="16"  idxTwo="19"  coef="1.7655"/><qTerm  idx="1"  idxOne="17"  idxTwo="18"  coef=".8727"/><qTerm  idx="1"  idxOne="17"  idxTwo="19"  coef="-1.9001"/><qTerm  idx="1"  idxOne="18"  idxTwo="18"  coef="1.8029"/><qTerm  idx="1"  idxOne="18"  idxTwo="19"  coef="-.1883"/><qTerm  idx="2"  idxOne="0"  idxTwo="1"  coef="-1.1845"/><qTerm  idx="2"  idxOne="0"  idxTwo="7"  coef=".3724"/><qTerm  idx="2"  idxOne="0"  idxTwo="12"  coef="-1.9767"/><qTerm  idx="2"  idxOne="0"  idxTwo="13"  coef="-.4386"/><qTerm  idx="2"  idxOne="0"  idxTwo="16"  coef=".5526"/><qTerm  idx="2"  idxOne="0"  idxTwo="18"  coef=".3934"/><qTerm  idx="2"  idxOne="0"  idxTwo="19"  coef="-1.8903"/><qTerm  idx="2"  idxOne="1"  idxTwo="1"  coef="-.2135"/><qTerm  idx="2"  idxOne="1"  idxTwo="3"  coef="1.0152"/><qTerm  idx="2"  idxOne="1"  idxTwo="5"  coef="1.0469"/><qTerm  idx="2"  idxOne="1"  idxTwo="6"  coef="1.958"/><qTerm  idx="2"  idxOne="1"  idxTwo="10"  coef="-.2143"/><qTerm  idx="2"  idxOne="1"  idxTwo="18"  coef=".222"/><qTerm  idx="2"  idxOne="2"  idxTwo="4"  coef="9.88e-2"/><qTerm  idx="2"  idxOne="2"  idxTwo="5"  coef=".2854"/><qTerm  idx="2"  idxOne="2"  idxTwo="10"  coef="1.1956"/><qTerm  idx="2"  idxOne="2"  idxTwo="12"  coef=".8163"/><qTerm  idx="2"  idxOne="2"  idxTwo="13"  coef="1.0448"/><qTerm  idx="2"  idxOne="2"  idxTwo="14"  coef="-1.2422"/><qTerm  idx="2"  idxOne="2"  idxTwo="16"  coef=".8375"/><qTerm  idx="2"  idxOne="2"  idxTwo="18"  coef="-1.0861"/><qTerm  idx="2"  idxOne="3"  idxTwo="4"  coef="-.6403"/><qTerm  idx="2"  idxOne="3"  idxTwo="5"  coef="-.627"/><qTerm  idx="2"  idxOne="3"  idxTwo="10"  coef="1.9497"/><qTerm  idx="2"  idxOne="3"  idxTwo="11"  coef=".4287"/><qTerm  idx="2"  idxOne="3"  idxTwo="12"  coef="-.7956"/><qTerm  idx="2"  idxOne="3"  idxTwo="14"  coef="-1.174"/><qTerm  idx="2"  idxOne="3"  idxTwo="15"  coef=".4659"/><qTerm  idx="2"  idxOne="3"  idxTwo="16"  coef=".6736"/><qTerm  idx="2"  idxOne="3"  idxTwo="18"  coef="-1.3377"/><qTerm  idx="2"  idxOne="4"  idxTwo="6"  coef="-1.1633"/><qTerm  idx="2"  idxOne="4"  idxTwo="8"  coef="-.8954"/><qTerm  idx="2"  idxOne="4"  idxTwo="9"  coef=".4953"/><qTerm  idx="2"  idxOne="4"  idxTwo="11"  coef="-1.7778"/><qTerm  idx="2"  idxOne="4"  idxTwo="12"  coef="1.4787"/><qTerm  idx="2"  idxOne="4"  idxTwo="14"  coef="-1.53"/><qTerm  idx="2"  idxOne="4"  idxTwo="15"  coef="1.7925"/><qTerm  idx="2"  idxOne="4"  idxTwo="19"  coef=".7251"/><qTerm  idx="2"  idxOne="5"  idxTwo="6"  coef="1.0466"/><qTerm  idx="2"  idxOne="5"  idxTwo="9"  coef="-1.8359"/><qTerm  idx="2"  idxOne="5"  idxTwo="10"  coef="-.4731"/><qTerm  idx="2"  idxOne="5"  idxTwo="12"  coef="-1.033"/><qTerm  idx="2"  idxOne="5"  idxTwo="16"  coef=".4265"/><qTerm  idx="2"  idxOne="5"  idxTwo="18"  coef="-.7451"/><qTerm  idx="2"  idxOne="6"  idxTwo="8"  coef=".8429"/><qTerm  idx="2"  idxOne="6"  idxTwo="9"  coef=".4432"/><qTerm  idx="2"  idxOne="6"  idxTwo="10"  coef=".4932"/><qTerm  idx="2"  idxOne="6"  idxTwo="11"  coef=".8455"/><qTerm  idx="2"  idxOne="6"  idxTwo="12"  coef="-.7593"/><qTerm  idx="2"  idxOne="6"  idxTwo="13"  coef=".564"/><qTerm  idx="2"  idxOne="6"  idxTwo="14"  coef="1.5416"/><qTerm  idx="2"  idxOne="6"  idxTwo="16"  coef=".4536"/><qTerm  idx="2"  idxOne="6"  idxTwo="17"  coef="-.6249"/><qTerm  idx="2"  idxOne="6"  idxTwo="18"  coef="-1.8877"/><qTerm  idx="2"  idxOne="7"  idxTwo="8"  coef=".5179"/><qTerm  idx="2"  idxOne="7"  idxTwo="9"  coef="-.9304"/><qTerm  idx="2"  idxOne="7"  idxTwo="11"  coef="-1.7448"/><qTerm  idx="2"  idxOne="7"  idxTwo="16"  coef="-.1926"/><qTerm  idx="2"  idxOne="7"  idxTwo="18"  coef="-.4074"/><qTerm  idx="2"  idxOne="8"  idxTwo="8"  coef="-1.7834"/><qTerm  idx="2"  idxOne="8"  idxTwo="10"  coef="1.039"/><qTerm  idx="2"  idxOne="8"  idxTwo="11"  coef="-4.93e-2"/><qTerm  idx="2"  idxOne="8"  idxTwo="12"  coef=".4484"/><qTerm  idx="2"  idxOne="8"  idxTwo="15"  coef=".7397"/><qTerm  idx="2"  idxOne="8"  idxTwo="17"  coef="-1.9657"/><qTerm  idx="2"  idxOne="9"  idxTwo="9"  coef="1.6135"/><qTerm  idx="2"  idxOne="9"  idxTwo="10"  coef="-1.0447"/><qTerm  idx="2"  idxOne="9"  idxTwo="13"  coef="-.2609"/><qTerm  idx="2"  idxOne="9"  idxTwo="15"  coef="1.4812"/><qTerm  idx="2"  idxOne="9"  idxTwo="16"  coef="1.5375"/><qTerm  idx="2"  idxOne="9"  idxTwo="17"  coef="1.7707"/><qTerm  idx="2"  idxOne="10"  idxTwo="10"  coef="-1.3182"/><qTerm  idx="2"  idxOne="10"  idxTwo="11"  coef=".2971"/><qTerm  idx="2"  idxOne="10"  idxTwo="12"  coef="-1.3885"/><qTerm  idx="2"  idxOne="10"  idxTwo="13"  coef="1.6199"/><qTerm  idx="2"  idxOne="10"  idxTwo="14"  coef="-1.5779"/><qTerm  idx="2"  idxOne="10"  idxTwo="16"  coef="1.8999"/><qTerm  idx="2"  idxOne="10"  idxTwo="17"  coef=".1107"/><qTerm  idx="2"  idxOne="11"  idxTwo="12"  coef="-.1079"/><qTerm  idx="2"  idxOne="11"  idxTwo="13"  coef="-.2817"/><qTerm  idx="2"  idxOne="11"  idxTwo="15"  coef="-.4738"/><qTerm  idx="2"  idxOne="11"  idxTwo="16"  coef="1.5684"/><qTerm  idx="2"  idxOne="11"  idxTwo="17"  coef="-.7753"/><qTerm  idx="2"  idxOne="12"  idxTwo="13"  coef="1.2583"/><qTerm  idx="2"  idxOne="12"  idxTwo="14"  coef="1.7525"/><qTerm  idx="2"  idxOne="12"  idxTwo="15"  coef=".9294"/><qTerm  idx="2"  idxOne="12"  idxTwo="16"  coef="-1.2222"/><qTerm  idx="2"  idxOne="12"  idxTwo="18"  coef="-1.4389"/><qTerm  idx="2"  idxOne="13"  idxTwo="13"  coef="1.e-4"/><qTerm  idx="2"  idxOne="13"  idxTwo="14"  coef=".1228"/><qTerm  idx="2"  idxOne="13"  idxTwo="15"  coef="-1.9686"/><qTerm  idx="2"  idxOne="13"  idxTwo="16"  coef="-1.4142"/><qTerm  idx="2"  idxOne="13"  idxTwo="18"  coef=".1152"/><qTerm  idx="2"  idxOne="14"  idxTwo="15"  coef="1.8919"/><qTerm  idx="2"  idxOne="14"  idxTwo="16"  coef="-1.0878"/><qTerm  idx="2"  idxOne="14"  idxTwo="17"  coef="-1.5157"/><qTerm  idx="2"  idxOne="14"  idxTwo="19"  coef=".425"/><qTerm  idx="2"  idxOne="15"  idxTwo="16"  coef="1.522"/><qTerm  idx="2"  idxOne="15"  idxTwo="17"  coef="-1.3906"/><qTerm  idx="2"  idxOne="15"  idxTwo="18"  coef="-.8309"/><qTerm  idx="2"  idxOne="16"  idxTwo="16"  coef="1.5231"/><qTerm  idx="2"  idxOne="16"  idxTwo="19"  coef="-.9228"/><qTerm  idx="2"  idxOne="17"  idxTwo="17"  coef=".3796"/><qTerm  idx="2"  idxOne="17"  idxTwo="18"  coef=".7596"/><qTerm  idx="2"  idxOne="17"  idxTwo="19"  coef=".9037"/><qTerm  idx="3"  idxOne="0"  idxTwo="10"  coef="-1.8937"/><qTerm  idx="3"  idxOne="0"  idxTwo="12"  coef="-.403"/><qTerm  idx="3"  idxOne="0"  idxTwo="16"  coef="-.8127"/><qTerm  idx="3"  idxOne="0"  idxTwo="17"  coef="-1.2824"/><qTerm  idx="3"  idxOne="1"  idxTwo="2"  coef="-1.8159"/><qTerm  idx="3"  idxOne="1"  idxTwo="7"  coef=".6262"/><qTerm  idx="3"  idxOne="1"  idxTwo="8"  coef="1.2352"/><qTerm  idx="3"  idxOne="1"  idxTwo="9"  coef="-.6801"/><qTerm  idx="3"  idxOne="1"  idxTwo="11"  coef="-1.5119"/><qTerm  idx="3"  idxOne="1"  idxTwo="12"  coef="1.5058"/><qTerm  idx="3"  idxOne="1"  idxTwo="13"  coef=".4531"/><qTerm  idx="3"  idxOne="1"  idxTwo="14"  coef="1.4621"/><qTerm  idx="3"  idxOne="1"  idxTwo="18"  coef="-1.2753"/><qTerm  idx="3"  idxOne="2"  idxTwo="5"  coef="1.6662"/><qTerm  idx="3"  idxOne="2"  idxTwo="8"  coef="1.7575"/><qTerm  idx="3"  idxOne="2"  idxTwo="10"  coef="-.4317"/><qTerm  idx="3"  idxOne="2"  idxTwo="12"  coef="-.146"/><qTerm  idx="3"  idxOne="2"  idxTwo="13"  coef="-.4839"/><qTerm  idx="3"  idxOne="2"  idxTwo="14"  coef="-4.37e-2"/><qTerm  idx="3"  idxOne="2"  idxTwo="15"  coef="-1.3259"/><qTerm  idx="3"  idxOne="2"  idxTwo="16"  coef="1.0304"/><qTerm  idx="3"  idxOne="2"  idxTwo="17"  coef="1.15e-2"/><qTerm  idx="3"  idxOne="3"  idxTwo="3"  coef="-.9895"/><qTerm  idx="3"  idxOne="3"  idxTwo="5"  coef=".9021"/><qTerm  idx="3"  idxOne="3"  idxTwo="6"  coef="1.5061"/><qTerm  idx="3"  idxOne="3"  idxTwo="7"  coef="-1.9329"/><qTerm  idx="3"  idxOne="3"  idxTwo="8"  coef="-.3337"/><qTerm  idx="3"  idxOne="3"  idxTwo="9"  coef="-.3125"/><qTerm  idx="3"  idxOne="3"  idxTwo="10"  coef="-1.6096"/><qTerm  idx="3"  idxOne="3"  idxTwo="11"  coef="-.5663"/><qTerm  idx="3"  idxOne="3"  idxTwo="13"  coef="-1.4519"/><qTerm  idx="3"  idxOne="3"  idxTwo="14"  coef="-.3781"/><qTerm  idx="3"  idxOne="3"  idxTwo="15"  coef=".9747"/><qTerm  idx="3"  idxOne="3"  idxTwo="16"  coef="-2.03e-2"/><qTerm  idx="3"  idxOne="3"  idxTwo="17"  coef="1.4992"/><qTerm  idx="3"  idxOne="3"  idxTwo="19"  coef="-1.5131"/><qTerm  idx="3"  idxOne="4"  idxTwo="5"  coef="1.8219"/><qTerm  idx="3"  idxOne="4"  idxTwo="6"  coef="1.4875"/><qTerm  idx="3"  idxOne="4"  idxTwo="7"  coef="-1.8377"/><qTerm  idx="3"  idxOne="4"  idxTwo="9"  coef="-1.0092"/><qTerm  idx="3"  idxOne="4"  idxTwo="10"  coef="1.9731"/><qTerm  idx="3"  idxOne="4"  idxTwo="11"  coef="1.9704"/><qTerm  idx="3"  idxOne="4"  idxTwo="12"  coef=".9389"/><qTerm  idx="3"  idxOne="4"  idxTwo="13"  coef="-1.1825"/><qTerm  idx="3"  idxOne="4"  idxTwo="14"  coef="-.9966"/><qTerm  idx="3"  idxOne="4"  idxTwo="16"  coef=".77"/><qTerm  idx="3"  idxOne="4"  idxTwo="18"  coef="1.7292"/><qTerm  idx="3"  idxOne="5"  idxTwo="6"  coef="-.2532"/><qTerm  idx="3"  idxOne="5"  idxTwo="7"  coef="1.8254"/><qTerm  idx="3"  idxOne="5"  idxTwo="9"  coef="-.7888"/><qTerm  idx="3"  idxOne="5"  idxTwo="10"  coef="1.5604"/><qTerm  idx="3"  idxOne="5"  idxTwo="11"  coef="-1.5555"/><qTerm  idx="3"  idxOne="5"  idxTwo="12"  coef="-.745"/><qTerm  idx="3"  idxOne="5"  idxTwo="13"  coef="-1.921"/><qTerm  idx="3"  idxOne="5"  idxTwo="15"  coef=".121"/><qTerm  idx="3"  idxOne="5"  idxTwo="16"  coef="-.4154"/><qTerm  idx="3"  idxOne="5"  idxTwo="17"  coef="-1.4625"/><qTerm  idx="3"  idxOne="5"  idxTwo="18"  coef=".7294"/><qTerm  idx="3"  idxOne="5"  idxTwo="19"  coef="-1.9898"/><qTerm  idx="3"  idxOne="6"  idxTwo="8"  coef="-.7683"/><qTerm  idx="3"  idxOne="6"  idxTwo="10"  coef="-.2774"/><qTerm  idx="3"  idxOne="6"  idxTwo="11"  coef=".7462"/><qTerm  idx="3"  idxOne="6"  idxTwo="12"  coef="-.6662"/><qTerm  idx="3"  idxOne="6"  idxTwo="14"  coef="-.5093"/><qTerm  idx="3"  idxOne="6"  idxTwo="16"  coef=".9984"/><qTerm  idx="3"  idxOne="6"  idxTwo="18"  coef=".209"/><qTerm  idx="3"  idxOne="7"  idxTwo="9"  coef="-1.5178"/><qTerm  idx="3"  idxOne="7"  idxTwo="10"  coef="8.92e-2"/><qTerm  idx="3"  idxOne="7"  idxTwo="18"  coef="-1.3285"/><qTerm  idx="3"  idxOne="8"  idxTwo="11"  coef="-1.8743"/><qTerm  idx="3"  idxOne="8"  idxTwo="13"  coef=".9001"/><qTerm  idx="3"  idxOne="8"  idxTwo="14"  coef="-.1265"/><qTerm  idx="3"  idxOne="8"  idxTwo="15"  coef="1.2254"/><qTerm  idx="3"  idxOne="8"  idxTwo="18"  coef="-.9801"/><qTerm  idx="3"  idxOne="9"  idxTwo="10"  coef="1.3241"/><qTerm  idx="3"  idxOne="9"  idxTwo="11"  coef=".4091"/><qTerm  idx="3"  idxOne="9"  idxTwo="16"  coef="1.0792"/><qTerm  idx="3"  idxOne="9"  idxTwo="18"  coef="-.4268"/><qTerm  idx="3"  idxOne="10"  idxTwo="12"  coef="-1.9785"/><qTerm  idx="3"  idxOne="10"  idxTwo="13"  coef="1.794"/><qTerm  idx="3"  idxOne="10"  idxTwo="14"  coef="-.7003"/><qTerm  idx="3"  idxOne="10"  idxTwo="16"  coef="-.3998"/><qTerm  idx="3"  idxOne="10"  idxTwo="19"  coef="1.7829"/><qTerm  idx="3"  idxOne="11"  idxTwo="12"  coef=".6116"/><qTerm  idx="3"  idxOne="11"  idxTwo="15"  coef="-.4597"/><qTerm  idx="3"  idxOne="11"  idxTwo="16"  coef="-.5857"/><qTerm  idx="3"  idxOne="11"  idxTwo="17"  coef="-1.6873"/><qTerm  idx="3"  idxOne="11"  idxTwo="18"  coef="1.3447"/><qTerm  idx="3"  idxOne="12"  idxTwo="12"  coef="1.2394"/><qTerm  idx="3"  idxOne="12"  idxTwo="14"  coef="1.1831"/><qTerm  idx="3"  idxOne="12"  idxTwo="16"  coef=".2624"/><qTerm  idx="3"  idxOne="12"  idxTwo="18"  coef="-.7863"/><qTerm  idx="3"  idxOne="12"  idxTwo="19"  coef="-1.938"/><qTerm  idx="3"  idxOne="13"  idxTwo="14"  coef="-.8815"/><qTerm  idx="3"  idxOne="13"  idxTwo="15"  coef=".1724"/><qTerm  idx="3"  idxOne="13"  idxTwo="18"  coef="3.41e-2"/><qTerm  idx="3"  idxOne="14"  idxTwo="14"  coef="-1.5664"/><qTerm  idx="3"  idxOne="14"  idxTwo="17"  coef="-1.9766"/><qTerm  idx="3"  idxOne="14"  idxTwo="18"  coef="-1.6092"/><qTerm  idx="3"  idxOne="15"  idxTwo="15"  coef="-.4462"/><qTerm  idx="3"  idxOne="15"  idxTwo="16"  coef=".6031"/><qTerm  idx="3"  idxOne="15"  idxTwo="17"  coef=".5538"/><qTerm  idx="3"  idxOne="16"  idxTwo="17"  coef="-.586"/><qTerm  idx="3"  idxOne="16"  idxTwo="18"  coef="1.6477"/><qTerm  idx="3"  idxOne="18"  idxTwo="19"  coef="-1.5611"/></quadraticCoefficients></instanceData></osil>
